NAME : netgen18-5_28
COMMENT : Generated using the function generateClusteredNetwork from the R-package netgen (Bossek,2015) - Number of clusters: 5
TYPE : TSP
DIMENSION : 18
EDGE_WEIGHT_TYPE : EUC_2D
NODE_COORD_SECTION
1 66.2947835005 31.4529865959
2 57.1745621835 23.1829663368
3 57.6641617361 9.4555947492
4 27.5932269377 36.5438840364
5 25.0714871092 46.1958473092
6 25.2029410929 39.7538078021
7 86.8335108615 76.3244590911
8 90.5998548361 76.6845528525
9 86.5035273356 78.7828233819
10 67.0447550076 77.7100737246
11 65.9334051273 75.0655331716
12 70.5195051389 79.5779521718
13 1.7147440609 16.8237957235
14 19.2135407421 17.0036346949
15 0.5656870637 13.0970551616
16 8.4393215455 1.2211140744
17 3.1669450762 6.7206976795
18 1.8817606659 21.127000521
EOF
